
Gurobi 10.0.1 (linux64) logging started Tue Sep 12 17:34:16 2023

Set parameter LogFile to value "./log/chr20c/chr20c.log"
Set parameter TimeLimit to value 180
Gurobi Optimizer version 10.0.1 build v10.0.1rc0 (linux64)

CPU model: 12th Gen Intel(R) Core(TM) i5-12600KF, instruction set [SSE2|AVX|AVX2]
Thread count: 8 physical cores, 16 logical processors, using up to 16 threads

Optimize a model with 40 rows, 400 columns and 800 nonzeros
Model fingerprint: 0xec992cca
Model has 7220 quadratic objective terms
Variable types: 0 continuous, 400 integer (400 binary)
Coefficient statistics:
  Matrix range     [1e+00, 1e+00]
  Objective range  [0e+00, 0e+00]
  QObjective range [2e+01, 4e+04]
  Bounds range     [1e+00, 1e+00]
  RHS range        [1e+00, 1e+00]
Found heuristic solution: objective 119538.00000
Presolve time: 0.03s
Presolved: 140 rows, 500 columns, 8220 nonzeros
Variable types: 0 continuous, 500 integer (400 binary)

Root relaxation: objective 0.000000e+00, 89 iterations, 0.00 seconds (0.00 work units)

    Nodes    |    Current Node    |     Objective Bounds      |     Work
 Expl Unexpl |  Obj  Depth IntInf | Incumbent    BestBd   Gap | It/Node Time

     0     0    0.00000    0   15 119538.000    0.00000   100%     -    0s
H    0     0                    64796.000000    0.00000   100%     -    0s
H    0     0                    58898.000000    0.00000   100%     -    0s
H    0     0                    55244.000000    0.00000   100%     -    0s
H    0     0                    55184.000000    0.00000   100%     -    0s
     0     0    0.00000    0   32 55184.0000    0.00000   100%     -    0s
H    0     0                    49768.000000    0.00000   100%     -    0s
H    0     0                    47000.000000    0.00000   100%     -    0s
     0     0    0.00000    0   17 47000.0000    0.00000   100%     -    0s
     0     0    0.00000    0   15 47000.0000    0.00000   100%     -    0s
H    0     0                    45018.000000    0.00000   100%     -    0s
H    0     0                    34988.000000    0.00000   100%     -    0s
H    0     0                    32388.000000    0.00000   100%     -    0s
     0     0    0.00000    0   17 32388.0000    0.00000   100%     -    0s
H    0     0                    30962.000000 2072.00000  93.3%     -    0s
H    0     0                    30056.000000 2072.00000  93.1%     -    0s
     0     0 2072.00000    0   15 30056.0000 2072.00000  93.1%     -    0s
     0     0 2072.00000    0   15 30056.0000 2072.00000  93.1%     -    0s
     0     0 2072.00000    0   16 30056.0000 2072.00000  93.1%     -    0s
     0     0 2072.00000    0   15 30056.0000 2072.00000  93.1%     -    0s
H    0     0                    28936.000000 2072.00000  92.8%     -    0s
     0     2 2072.00000    0   15 28936.0000 2072.00000  92.8%     -    0s
H   72    79                    28716.000000 2072.00000  92.8%  24.4    0s
H   78    79                    28240.000000 2072.00000  92.7%  22.8    0s
H   85    95                    27808.000000 2072.00000  92.5%  23.6    0s
H  119   137                    27752.000000 2072.00000  92.5%  19.5    0s
H  122   137                    26374.000000 2072.00000  92.1%  19.3    0s
H 1646  1540                    26066.000000 2072.00000  92.1%  10.1    0s
H 1849  1538                    25100.000000 2072.00000  91.7%   9.7    0s
H 1932  1522                    24652.000000 2072.00000  91.6%  10.6    0s
H 1940  1446                    23428.000000 2072.00000  91.2%  10.7    0s
H 1957  1392                    23160.000000 2072.00000  91.1%  10.8    0s
H11955  6733                    22598.000000 2072.00000  90.8%  12.1    0s
H11957  6732                    22574.000000 2072.00000  90.8%  12.1    0s
H14692  8303                    22564.000000 2072.00000  90.8%  13.0    1s
H14693  8273                    22044.000000 2072.00000  90.6%  13.0    1s
*18564  9807              45    18048.000000 2072.00000  88.5%  14.7    1s
*26462 12399              35    17934.000000 2072.00000  88.4%  17.9    1s
*28389 13014              76    17578.000000 2072.00000  88.2%  18.4    1s
*47288 15917              70    17440.000000 3142.00000  82.0%  20.2    3s
*48901 15519              67    16868.000000 3142.00000  81.4%  20.1    3s
*49042 15071              64    16262.000000 3142.00000  80.7%  20.1    3s
*59006 12919              45    14142.000000 4454.00000  68.5%  20.4    3s

Cutting planes:
  Flow cover: 18
  GUB cover: 1

Explored 93083 nodes (1967381 simplex iterations) in 4.67 seconds (7.01 work units)
Thread count was 16 (of 16 available processors)

Solution count 10: 14142 16262 16868 ... 22574

Optimal solution found (tolerance 1.00e-04)
Best objective 1.414200000000e+04, best bound 1.414200000000e+04, gap 0.0000%
